Version identifier: 12.10.0.0 | 2019-11-26 | 843d4de
CPXPARAM_WorkMem                                 16384
CPXPARAM_MIP_Limits_TreeMemory                   24576
Tried aggregator 2 times.
MIP Presolve eliminated 21 rows and 0 columns.
MIP Presolve added 40 rows and 0 columns.
Aggregator did 60 substitutions.
Reduced MIP has 121 rows, 110 columns, and 500 nonzeros.
Reduced MIP has 110 binaries, 0 generals, 0 SOSs, and 0 indicators.
Presolve time = 0,00 sec. (1,15 ticks)
Found incumbent of value 362,000000 after 0,00 sec. (1,30 ticks)
Probing time = 0,00 sec. (0,96 ticks)
Tried aggregator 1 time.
Detecting symmetries...
Reduced MIP has 121 rows, 110 columns, and 500 nonzeros.
Reduced MIP has 110 binaries, 0 generals, 0 SOSs, and 0 indicators.
Presolve time = 0,00 sec. (0,44 ticks)
Probing time = 0,00 sec. (0,95 ticks)
Clique table members: 410.
MIP emphasis: balance optimality and feasibility.
MIP search method: dynamic search.
Parallel mode: deterministic, using up to 16 threads.
Root relaxation solution time = 0,00 sec. (0,26 ticks)

        Nodes                                         Cuts/
   Node  Left     Objective  IInf  Best Integer    Best Bound    ItCnt     Gap

*     0+    0                          362,0000        0,0000           100,00%
*     0+    0                          339,0000        0,0000           100,00%
      0     0      185,0000    98      339,0000      185,0000       34   45,43%
      0     0      266,2778    98      339,0000     Cuts: 130      101   21,45%
      0     0      272,3961    98      339,0000     Cuts: 130      124   19,65%
*     0+    0                          333,0000      272,3961            18,20%
Detecting symmetries...

Repeating presolve.
Tried aggregator 1 time.
MIP Presolve eliminated 32 rows and 32 columns.
Reduced MIP has 89 rows, 78 columns, and 308 nonzeros.
Reduced MIP has 78 binaries, 0 generals, 0 SOSs, and 0 indicators.
Presolve time = 0,00 sec. (0,24 ticks)
Probing time = 0,00 sec. (0,29 ticks)
Tried aggregator 1 time.
Detecting symmetries...
Reduced MIP has 89 rows, 78 columns, and 308 nonzeros.
Reduced MIP has 78 binaries, 0 generals, 0 SOSs, and 0 indicators.
Presolve time = 0,00 sec. (0,26 ticks)
Represolve time = 0,00 sec. (1,53 ticks)
Probing time = 0,00 sec. (0,29 ticks)
Clique table members: 327.
MIP emphasis: balance optimality and feasibility.
MIP search method: dynamic search.
Parallel mode: deterministic, using up to 16 threads.
Root relaxation solution time = 0,00 sec. (1,28 ticks)

        Nodes                                         Cuts/
   Node  Left     Objective  IInf  Best Integer    Best Bound    ItCnt     Gap

*     0+    0                          333,0000      309,0000             7,21%
      0     0      272,3961    75      333,0000      309,0000      216    7,21%
      0     0      272,7233    75      333,0000     Cuts: 122      233    7,21%
      0     0      272,7853    75      333,0000     Cuts: 122      235    7,21%
      0     0        cutoff            333,0000      333,0000      235    0,00%
Elapsed time = 0,08 sec. (23,67 ticks, tree = 0,01 MB, solutions = 3)

Clique cuts applied:  68
Cover cuts applied:  29
Implied bound cuts applied:  64
Flow cuts applied:  3
Mixed integer rounding cuts applied:  19
Zero-half cuts applied:  1
Lift and project cuts applied:  1
Gomory fractional cuts applied:  5

Root node processing (before b&c):
  Real time             =    0,08 sec. (23,68 ticks)
Parallel b&c, 16 threads:
  Real time             =    0,00 sec. (0,00 ticks)
  Sync time (average)   =    0,00 sec.
  Wait time (average)   =    0,00 sec.
                          ------------
Total (root+branch&cut) =    0,08 sec. (23,68 ticks)
